proyfinal/src/viki/013/andrea/andrea-localstore/experimentInOfficeAgust.take6/worker_1/892d156c-f9c8-4021-b280-8380541a2f1a.als.cnf.out
Reading from standard input... Use '--help' for help.
============================[ Problem Statistics ]=============================
|                                                                             |
|  Number of variables:         87638                                         |
|  Number of clauses:          161767                                         |
|  Parse time:                   0.03 s                                       |
|                                                                             |
============================[ Search Statistics ]==============================
| Conflicts |          ORIGINAL         |          LEARNT          | Progress |
|           |    Vars  Clauses Literals |    Limit  Clauses Lit/Cl |          |
===============================================================================
|       100 |   63195   108144   270201 |    39652      100     13 | 27.891 % |
|       250 |   63195   108144   270201 |    43618      250     55 | 27.891 % |
|       475 |   63195   108144   270201 |    47979      475     54 | 27.891 % |
|       812 |   63194   108100   270111 |    52777      810     52 | 27.892 % |
|      1318 |   63165   107982   269836 |    58055     1315     48 | 27.925 % |
|      2077 |   53088   107882   269607 |    63861     2072     55 | 39.424 % |
|      3216 |   53000    78389   197069 |    70247     3190     58 | 39.524 % |
|      4924 |   52974    78300   196815 |    77272     4897     60 | 39.554 % |
|      7486 |   52838    77804   195647 |    84999     7443     66 | 39.709 % |
|     11330 |   52734    77380   194618 |    93499    11257     73 | 39.827 % |
|     17096 |   52675    77113   193986 |   102849    16988     72 | 39.895 % |
===============================================================================
restarts              : 63
conflicts             : 17154          (7378 /sec)
decisions             : 64221          (0.00 % random) (27622 /sec)
propagations          : 25396577       (10923466 /sec)
conflict literals     : 1230543        (43.51 % deleted)
Memory used           : 26.51 MB
CPU time              : 2.32496 s

INDETERMINATE
